clingo version 5.4.0
Reading from merger/Adrian/merge.lp ...
Solving...
Answer: 1
occurs(object(robot,1),action(move,(0,1)),1). occurs(object(robot,1),action(move,(1,0)),2). occurs(object(robot,1),action(move,(1,0)),3). occurs(object(robot,2),action(move,(0,1)),1). occurs(object(robot,2),action(move,(-1,0)),2). occurs(object(robot,2),action(move,(-1,0)),3). occurs(object(robot,1),action(move,(1,0)),4). occurs(object(robot,1),action(move,(1,0)),5). occurs(object(robot,1),action(move,(1,0)),6). occurs(object(robot,1),action(move,(1,0)),7). occurs(object(robot,1),action(move,(1,0)),8). occurs(object(robot,2),action(move,(-1,0)),9). occurs(object(robot,2),action(move,(0,-1)),6). occurs(object(robot,2),action(move,(1,0)),4). occurs(object(robot,2),action(move,(1,0)),5). occurs(object(robot,2),action(move,(0,1)),8). occurs(object(robot,2),action(move,(-1,0)),10). occurs(object(robot,2),action(move,(-1,0)),15). occurs(object(robot,2),action(move,(-1,0)),14). occurs(object(robot,2),action(move,(-1,0)),13). occurs(object(robot,2),action(move,(-1,0)),12). occurs(object(robot,2),action(move,(-1,0)),11).
Optimization: 4
OPTIMUM FOUND

Models       : 1
  Optimum    : yes
Optimization : 4
Calls        : 1
Time         : 1.087s (Solving: 0.63s 1st Model: 0.22s Unsat: 0.40s)
CPU Time     : 1.065s
